200
[41,46,52,55,57,58,59,60,64,67,71,75,76,78,80,85,86,87,89,91,92,97,98,100,101,103,106,109,110,113,114,117,118,122,123,125,127,135,138,140]
[1,1,1,2,1,1,2,2,1,1,1,1,1,3,1,1,1,1,2,1,1,1,1,1,1,1,1,4,2,1,1,1,1,1,1,1,1,1,1,1]
